128 68
104 22 97 127 30 80 1 45 115 72 86 52 118 92 13 84 117 90 42 37 49 116 18 60 78 12 120 14 9 7 100 126 108 106 76 68 94 20 69 3 17 19 67 89 65 33 125 121 35 81 123 11 63 10 28 110 50 111 40 47 38 36 103 44 32 88 122 48 119 105 85 41 71 4 95 27 23 77 87 83 54 16 46 75 24 93 62 64 59 2 43 114 21 61 58 112 5 70 101 73 8 74 98 99 15 96 128 31 34 113 25 57 26 56 79 29 55 109 82 66 124 53 102 39 91 107 51 6 
